p cnf 159 332               
5 26 0
-9 26 0
6 27 0
-10 27 0
7 28 0
-11 28 0
8 29 0
-12 29 0
-26 -27 -28 -29 30 0
9 31 0
-5 31 0
10 32 0
-6 32 0
11 33 0
-7 33 0
12 34 0
-8 34 0
-31 -32 -33 -34 35 0
-30 -35 36 0
-6 -5 -13 0
13 -15 0
5 6 -14 0
14 -15 0
15 -25 0
-8 -7 -16 0
16 -18 0
7 8 -17 0
17 -18 0
18 -25 0
-10 -9 -19 0
19 -21 0
9 10 -20 0
20 -21 0
21 -25 0
-12 -11 -22 0
22 -24 0
11 12 -23 0
23 -24 0
24 -25 0
-5 -37 0
6 -37 0
5 -6 37 0
-1 37 -38 0
1 -37 -38 0
37 -37 -38 0
38 -45 0
-7 -39 0
8 -39 0
7 -8 39 0
-2 39 -40 0
2 -39 -40 0
39 -39 -40 0
40 -45 0
-9 -41 0
10 -41 0
9 -10 41 0
-3 41 -42 0
3 -41 -42 0
41 -41 -42 0
42 -45 0
-11 -43 0
12 -43 0
11 -12 43 0
-4 43 -44 0
4 -43 -44 0
43 -43 -44 0
44 -45 0
-8 -46 0
-6 -46 0
8 6 46 0
46 -48 0
5 -47 0
7 -47 0
-5 -7 47 0
47 -48 0
-46 -47 48 0
-48 52 0
-12 -49 0
-10 -49 0
12 10 49 0
49 -51 0
9 -50 0
11 -50 0
-9 -11 50 0
50 -51 0
-49 -50 51 0
-51 52 0
48 51 -52 0
52 -65 0
2 -54 0
48 -54 0
-2 -48 54 0
-54 58 0
4 -56 0
51 -56 0
-4 -51 56 0
-56 58 0
54 56 -58 0
58 -65 0
-52 -58 65 0
-58 -64 0
52 -64 0
58 -52 64 0
-65 -64 -66 0
66 -68 0
64 65 -67 0
67 -68 0
68 69 0
52 -60 0
1 -53 0
48 -53 0
-1 -48 53 0
-53 57 0
3 -55 0
51 -55 0
-3 -51 55 0
-55 57 0
53 55 -57 0
57 -60 0
-52 -57 60 0
-57 -59 0
52 -59 0
57 -52 59 0
-60 -59 -61 0
61 -63 0
59 60 -62 0
62 -63 0
63 69 0
-69 -142 0
65 -142 0
-7 -70 0
-6 -70 0
7 6 70 0
70 -72 0
5 -71 0
8 -71 0
-5 -8 71 0
71 -72 0
-70 -71 72 0
-72 76 0
-11 -73 0
-10 -73 0
11 10 73 0
73 -75 0
9 -74 0
12 -74 0
-9 -12 74 0
74 -75 0
-73 -74 75 0
-75 76 0
72 75 -76 0
76 -89 0
2 -78 0
72 -78 0
-2 -72 78 0
-78 82 0
4 -80 0
75 -80 0
-4 -75 80 0
-80 82 0
78 80 -82 0
82 -89 0
-76 -82 89 0
-82 -88 0
76 -88 0
82 -76 88 0
-89 -88 -90 0
90 -92 0
88 89 -91 0
91 -92 0
92 93 0
76 -84 0
1 -77 0
72 -77 0
-1 -72 77 0
-77 81 0
3 -79 0
75 -79 0
-3 -75 79 0
-79 81 0
77 79 -81 0
81 -84 0
-76 -81 84 0
-81 -83 0
76 -83 0
81 -76 83 0
-84 -83 -85 0
85 -87 0
83 84 -86 0
86 -87 0
87 93 0
-93 -145 0
88 -145 0
-8 -94 0
-5 -94 0
8 5 94 0
94 -96 0
6 -95 0
7 -95 0
-6 -7 95 0
95 -96 0
-94 -95 96 0
-96 100 0
-12 -97 0
-9 -97 0
12 9 97 0
97 -99 0
10 -98 0
11 -98 0
-10 -11 98 0
98 -99 0
-97 -98 99 0
-99 100 0
96 99 -100 0
100 -113 0
2 -102 0
96 -102 0
-2 -96 102 0
-102 106 0
4 -104 0
99 -104 0
-4 -99 104 0
-104 106 0
102 104 -106 0
106 -113 0
-100 -106 113 0
-106 -112 0
100 -112 0
106 -100 112 0
-113 -112 -114 0
114 -116 0
112 113 -115 0
115 -116 0
116 117 0
100 -108 0
1 -101 0
96 -101 0
-1 -96 101 0
-101 105 0
3 -103 0
99 -103 0
-3 -99 103 0
-103 105 0
101 103 -105 0
105 -108 0
-100 -105 108 0
-105 -107 0
100 -107 0
105 -100 107 0
-108 -107 -109 0
109 -111 0
107 108 -110 0
110 -111 0
111 117 0
-117 -146 0
113 -146 0
-7 -118 0
-5 -118 0
7 5 118 0
118 -120 0
6 -119 0
8 -119 0
-6 -8 119 0
119 -120 0
-118 -119 120 0
-120 124 0
-11 -121 0
-9 -121 0
11 9 121 0
121 -123 0
10 -122 0
12 -122 0
-10 -12 122 0
122 -123 0
-121 -122 123 0
-123 124 0
120 123 -124 0
124 -137 0
2 -126 0
120 -126 0
-2 -120 126 0
-126 130 0
4 -128 0
123 -128 0
-4 -123 128 0
-128 130 0
126 128 -130 0
130 -137 0
-124 -130 137 0
-130 -136 0
124 -136 0
130 -124 136 0
-137 -136 -138 0
138 -140 0
136 137 -139 0
139 -140 0
140 141 0
124 -132 0
1 -125 0
120 -125 0
-1 -120 125 0
-125 129 0
3 -127 0
123 -127 0
-3 -123 127 0
-127 129 0
125 127 -129 0
129 -132 0
-124 -129 132 0
-129 -131 0
124 -131 0
129 -124 131 0
-132 -131 -133 0
133 -135 0
131 132 -134 0
134 -135 0
135 141 0
-141 -149 0
136 -149 0
-69 -150 0
60 -150 0
-93 -152 0
84 -152 0
-117 -155 0
107 -155 0
-141 -157 0
131 -157 0
142 145 146 149 150 152 155 157 -158 0
-36 0
25 0
45 0
158 0
